
Gurobi 7.5.2 (linux64, Matlab) logging started Mon Aug 27 15:14:34 2018


Gurobi 7.5.2 (linux64) logging started Mon Aug 27 15:14:34 2018


Gurobi 7.5.2 (linux64, Matlab) logging started Mon Aug 27 15:21:41 2018


Gurobi 7.5.2 (linux64) logging started Mon Aug 27 15:21:41 2018


Gurobi 7.5.2 (linux64, Matlab) logging started Mon Aug 27 15:22:30 2018


Gurobi 7.5.2 (linux64) logging started Mon Aug 27 15:22:30 2018


Gurobi 7.5.2 (linux64, Matlab) logging started Mon Aug 27 15:23:07 2018


Gurobi 7.5.2 (linux64) logging started Mon Aug 27 15:23:07 2018

